lab2/mzn_casos_prueba/2_data_ext.dzn
%datafile - Caso 2 (ext): Asimétrico + tonelaje mínimo y cadena requiere
VALOR = 160;
dureza = [8.8, 6.1, 2.0, 4.2, 5.0];
precios = [| 100, 110, 120, 100, 105
           | 120, 120, 100,  80, 105
           | 140, 150, 140, 110, 105
           | 150, 140, 150, 130, 135
           | 110, 130, 140, 100,  95
           |  90,  90, 130,  70, 125 |];

MAXV = 250;
MAXN = 300;

PV = 20;

MCAP = 800;

CA = 4;

MinD = 3.0;
MaxD = 6.0;
MinB = 120000;

inicial = [600, 100, 800, 50, 400];

%Nuevos

% Como mínimo 3 aceites distintos cada mes
K = [3, 3, 3, 3, 3, 3];

% Si se usa un aceite, al menos 30 toneladas
T = [| 30, 30, 30, 30, 30
     | 30, 30, 30, 30, 30
     | 30, 30, 30, 30, 30
     | 30, 30, 30, 30, 30
     | 30, 30, 30, 30, 30
     | 30, 30, 30, 30, 30 |];

% Cadena de dependencias propia:
% VEG2 requiere ANV3
% ANV1 requiere VEG2
% VEG1 -> ...., ----, ----, ----, ----
% VEG2 -> ----, ...., ----, ----, ANV3
% ANV1 -> ----, VEG2, ...., ----, ----
% ANV2 -> ----, ----, ----, ...., ----
% ANV3 -> ----, ----, ----, ----, ....
requiere = [| false, false, false, false, false
            | false, false, false, false, true
            | false, true,  false, false, false
            | false, false, false, false, false
            | false, false, false, false, false |];

% Sin reemplazo
reemplazo = [| false, false, false, false, false
             | false, false, false, false, false
             | false, false, false, false, false
             | false, false, false, false, false
             | false, false, false, false, false |];
